NPROCS=0
This instance is clustered!
Gurobi Optimizer version 9.0.0 build v9.0.0rc2 (linux64)
Optimize a model with 30 rows, 226 columns and 450 nonzeros
Model fingerprint: 0x1ab43932
Variable types: 1 continuous, 225 integer (225 binary)
Coefficient statistics:
  Matrix range     [1e+00, 1e+00]
  Objective range  [1e+00, 2e+02]
  Bounds range     [1e+00, 1e+00]
  RHS range        [1e+00, 1e+00]
 done with super cut 0
Presolve removed 2 rows and 42 columns
Presolve time: 0.00s
Presolved: 28 rows, 184 columns, 366 nonzeros
Variable types: 1 continuous, 183 integer (183 binary)

Root relaxation: objective 1.862241e+02, 24 iterations, 0.00 seconds

    Nodes    |    Current Node    |     Objective Bounds      |     Work
 Expl Unexpl |  Obj  Depth IntInf | Incumbent    BestBd   Gap | It/Node Time

     0     0  346.21919    0   20          -  346.21919      -     -    0s
 done with super cut 1
 done with super cut 2
 done with super cut 3
 done with super cut 4
 done with super cut 5
H    0     0                     546.4600476  346.21919  36.6%     -    1s
 done with super cut 6
     0     0  356.08047    0   27  546.46005  356.08047  34.8%     -    1s
 done with super cut 7
 done with super cut 8
H    0     0                     467.7801984  356.08047  23.9%     -    2s
     0     0  357.27622    0   33  467.78020  357.27622  23.6%     -    2s
 done with super cut 9
 done with super cut 10
     0     2  357.27622    0   33  467.78020  357.27622  23.6%     -    3s
* 4107  1966              28     466.6626292  383.02242  17.9%   6.3    4s
  6296  2303     cutoff   31       466.66263  390.61411  16.3%   6.5    5s
 23571  6064     cutoff   33       466.66263  424.63754  9.01%   7.1   10s
*32842  6024              22     464.9458965  434.85536  6.47%   7.3   14s
 33291  6021     cutoff   29       464.94590  435.54094  6.32%   7.3   16s
*35576  5677              22     464.9214443  437.64121  5.87%   7.4   18s
 38584  4980     cutoff   36       464.92144  441.98369  4.93%   7.5   20s
*42316  3398              31     462.8877531  447.00930  3.43%   7.6   22s
*45754  1394              31     461.3579702  452.62014  1.89%   7.7   23s

Cutting planes:
  Lazy constraints: 1792

Explored 47521 nodes (364590 simplex iterations) in 24.61 seconds
Thread count was 12 (of 12 available processors)

Solution count 7: 461.358 462.888 464.921 ... 546.46

Optimal solution found (tolerance 1.00e-04)
Best objective 4.613579701700e+02, best bound 4.613579701700e+02, gap 0.0000%

User-callback calls 102650, time in user-callback 3.20 sec
/projects/academic/josewalt/caigao/RRARP_BD/BendersDecomp/ret/model_outs/n_13_h_5_algo_4.out
 =====>>>>> Solution is written to file in <../ret/model_outs> !!!
===>> All Done!
